0 8190253
325 7571294
650 7420220
975 7314362
1300 7272203
1625 7217161
1950 7190267
2275 7174667
2600 7163352
2925 7153623
3250 7150580
3575 7148130
3900 7145543
4225 7129404
4550 7128318
4875 7127539
5200 7126159
5525 7125676
5850 7123232
6175 7119072
6500 7118907
6825 7118844
7150 7118837
